letting n =  10
letting blocks =  [[1, 3], [1, 5], [2, 9], [3, 1], [3, 6], [4, 4], [5, 3], [5, 8], [6, 6], [6, 9], [6, 10], [7, 2], [7, 8], [8, 2], [8, 7], [9, 2], [9, 10], [10, 2], [10, 4], [10, 10]]
